
Gurobi 12.0.2 (win64) logging started Fri Jun  6 10:11:00 2025

Set parameter LogFile to value "C:\Ioana\_uni\honours\slp\algorithm\Main_files\results\others\prox_tubules_new\Task_026_Sample004_irr_gurobi.log"
Gurobi Optimizer version 12.0.2 build v12.0.2rc0 (win64 - Windows 11.0 (26100.2))

CPU model: Intel(R) Core(TM) Ultra 5 125H, instruction set [SSE2|AVX|AVX2]
Thread count: 14 physical cores, 18 logical processors, using up to 18 threads

Non-default parameters:
TimeLimit  2200

Optimize a model with 47658 rows, 34796 columns and 147843 nonzeros
Model fingerprint: 0x8884591b
Variable types: 17402 continuous, 17394 integer (17394 binary)
Coefficient statistics:
  Matrix range     [1e-04, 8e+04]
  Objective range  [1e-04, 3e+00]
  Bounds range     [1e+00, 1e+03]
  RHS range        [1e+00, 1e+00]
Presolve removed 31244 rows and 21834 columns
Presolve time: 0.30s
Presolved: 16414 rows, 12962 columns, 54599 nonzeros
Variable types: 6415 continuous, 6547 integer (6547 binary)

Root relaxation: objective 8.890363e-04, 834 iterations, 0.05 seconds (0.07 work units)

    Nodes    |    Current Node    |     Objective Bounds      |     Work
 Expl Unexpl |  Obj  Depth IntInf | Incumbent    BestBd   Gap | It/Node Time

     0     0    0.00089    0    4          -    0.00089      -     -    0s
H    0     0                       0.8890363    0.00089   100%     -    0s

Cutting planes:
  Gomory: 1
  Cover: 1
  MIR: 6
  Flow cover: 5
  Flow path: 2
  Relax-and-lift: 1

Explored 1 nodes (834 simplex iterations) in 0.58 seconds (0.65 work units)
Thread count was 18 (of 18 available processors)

Solution count 1: 0.889036 

Optimal solution found (tolerance 1.00e-04)
Best objective 8.890362522766e-01, best bound 8.890362522766e-01, gap 0.0000%
